\ENCODING=ISO-8859-1
\Problem name: ilog.cplex

Minimize
 obj: 3.2420860212603 x1 + 0.878349564805825 x2 + 2.47209736763785 x3
      + 3.2420860212603 x4 + 2.4992947482188 x5 + 3.53038279635653 x6
      + 0.878349564805825 x7 + 2.4992947482188 x8 + 1.98187438695194 x9
      + 2.47209736763785 x10 + 3.53038279635653 x11 + 1.98187438695194 x12
Subject To
 c1: x4 + x7 + x10  = 1
 c3: x1 + x8 + x11  = 1
 c5: x2 + x5 + x12  = 1
 c7: x3 + x6 + x9  = 1
Bounds
 0 <= x1 <= 1
 0 <= x2 <= 1
 0 <= x3 <= 1
 0 <= x4 <= 1
 0 <= x5 <= 1
 0 <= x6 <= 1
 0 <= x7 <= 1
 0 <= x8 <= 1
 0 <= x9 <= 1
 0 <= x10 <= 1
 0 <= x11 <= 1
 0 <= x12 <= 1
Binaries
 x1  x2  x3  x4  x5  x6  x7  x8  x9  x10  x11  x12 
End
